\Generated by Cardinal Operations

Maximize
   255.28 x_1 + 47.45 x_2 + 205.7 x_3 + 109.28 x_4 + 437.2 x_5 + 9.33 x_6 
   + 668.27 x_7 + 421.89 x_8 + 651.21 x_9 + 81.73 x_10 + 152.58 x_11 
   + 154.06 x_12 
Subject To
 inventory_constraint: x_1 <= 5627060
 x_2 <= 6131330
 x_3 <= 4656850
 x_4 <= 5913850
 x_5 <= 5332910
 x_6 <= 5916720
 x_7 <= 4402490
 x_8 <= 5333760
 x_9 <= 6176410
 x_10 <= 5604800
 x_11 <= 4901600
 x_12 <= 5825440
 demand_constraint: x_1 <= 765850
 x_2 <= 825453
 x_3 <= 627481
 x_4 <= 800987
 x_5 <= 718806
 x_6 <= 798999
 x_7 <= 591313
 x_8 <= 713606
 x_9 <= 838862
 x_10 <= 756433
 x_11 <= 655310
 x_12 <= 786187
Generals
 x_1  x_2  x_3  x_4  x_5  x_6  x_7  x_8  x_9  x_10  x_11  x_12  
END

